tsp/input_files/mnt.tsp
NAME: mnt10
TYPE: TSP
COMMENT: 10-city problem
DIMENSION: 10
EDGE_WEIGHT_TYPE: EUC_2D
NODE_COORD_SECTION
1 56 48
2 48 24
3 24 24
4 40 32
5 40 48
6 16 48
7 48 40
8 16 32
9 32 56
10 40 16
EOF
